Maximize
9.0 x0 +18.0 x1 +27.0 x2 +36.0 x3 +45.0 x4 +49.0 x5 +53.0 x6 +57.0 x7 +58.0 x8 
Subject To
-9.0 x0 +0.0 x1 +9.0 x2 +0.0 x3 +9.0 x4 +5.0 x5 +1.0 x6 +5.0 x7 +4.0 x8  <= 11
-9.0 x0 +0.0 x1 +9.0 x2 +0.0 x3 +9.0 x4 +5.0 x5 +1.0 x6 +5.0 x7 +4.0 x8  >= -1
9.0 x0 +0.0 x1 -9.0 x2 +0.0 x3 +9.0 x4 +5.0 x5 +1.0 x6 +5.0 x7 +4.0 x8  <= 11
9.0 x0 +0.0 x1 -9.0 x2 +0.0 x3 +9.0 x4 +5.0 x5 +1.0 x6 +5.0 x7 +4.0 x8  >= -1
-9.0 x0 -18.0 x1 -27.0 x2 -36.0 x3 -27.0 x4 -23.0 x5 -19.0 x6 -15.0 x7 -14.0 x8  <= 11
-9.0 x0 -18.0 x1 -27.0 x2 -36.0 x3 -27.0 x4 -23.0 x5 -19.0 x6 -15.0 x7 -14.0 x8  >= -1
0.0 x0 +0.0 x1 +0.0 x2 +0.0 x3 -9.0 x4 -5.0 x5 -1.0 x6 +3.0 x7 +4.0 x8  <= 11
0.0 x0 +0.0 x1 +0.0 x2 +0.0 x3 -9.0 x4 -5.0 x5 -1.0 x6 +3.0 x7 +4.0 x8  >= -1
0.0 x0 +0.0 x1 +0.0 x2 +0.0 x3 -9.0 x4 -5.0 x5 -1.0 x6 +3.0 x7 +4.0 x8  <= 11
0.0 x0 +0.0 x1 +0.0 x2 +0.0 x3 -9.0 x4 -5.0 x5 -1.0 x6 +3.0 x7 +4.0 x8  >= -1
0.0 x0 +0.0 x1 +0.0 x2 +0.0 x3 -9.0 x4 -13.0 x5 -17.0 x6 -13.0 x7 -14.0 x8  <= 11
0.0 x0 +0.0 x1 +0.0 x2 +0.0 x3 -9.0 x4 -13.0 x5 -17.0 x6 -13.0 x7 -14.0 x8  >= -1
0.0 x0 +0.0 x1 +0.0 x2 +0.0 x3 -9.0 x4 -13.0 x5 -17.0 x6 -13.0 x7 -14.0 x8  <= 11
0.0 x0 +0.0 x1 +0.0 x2 +0.0 x3 -9.0 x4 -13.0 x5 -17.0 x6 -13.0 x7 -14.0 x8  >= -1
0.0 x0 +0.0 x1 +0.0 x2 +0.0 x3 +0.0 x4 -2.0 x5 -1.0 x6 +0.0 x7 +1.0 x8  <= 11
0.0 x0 +0.0 x1 +0.0 x2 +0.0 x3 +0.0 x4 -2.0 x5 -1.0 x6 +0.0 x7 +1.0 x8  >= -1
0.0 x0 +0.0 x1 +0.0 x2 +0.0 x3 +0.0 x4 +2.0 x5 +1.0 x6 +2.0 x7 +1.0 x8  <= 11
0.0 x0 +0.0 x1 +0.0 x2 +0.0 x3 +0.0 x4 +2.0 x5 +1.0 x6 +2.0 x7 +1.0 x8  >= -1
0.0 x0 +0.0 x1 +0.0 x2 +0.0 x3 +0.0 x4 -1.0 x5 +1.0 x6 -1.0 x7 -2.0 x8  <= 11
0.0 x0 +0.0 x1 +0.0 x2 +0.0 x3 +0.0 x4 -1.0 x5 +1.0 x6 -1.0 x7 -2.0 x8  >= -1
0.0 x0 +0.0 x1 +0.0 x2 +0.0 x3 +0.0 x4 +1.0 x5 -1.0 x6 -3.0 x7 -2.0 x8  <= 11
0.0 x0 +0.0 x1 +0.0 x2 +0.0 x3 +0.0 x4 +1.0 x5 -1.0 x6 -3.0 x7 -2.0 x8  >= -1
x3 - x6 = 0
x4 - x5 = 0
End
